
Gurobi 10.0.1 (win64) logging started Fri May 19 11:41:11 2023

Set parameter LogFile to value "results/log/FTQL_makespan.log"
Gurobi Optimizer version 10.0.1 build v10.0.1rc0 (win64)

CPU model: AMD Ryzen 7 3700X 8-Core Processor, instruction set [SSE2|AVX|AVX2]
Thread count: 8 physical cores, 16 logical processors, using up to 16 threads

Optimize a model with 210 rows, 625 columns and 667 nonzeros
Model fingerprint: 0xcb26e702
Variable types: 0 continuous, 625 integer (600 binary)
Coefficient statistics:
  Matrix range     [1e+00, 4e+06]
  Objective range  [1e+00, 1e+00]
  Bounds range     [1e+00, 1e+00]
  RHS range        [1e+00, 1e+07]
Presolve removed 97 rows and 554 columns
Presolve time: 0.00s
Presolved: 113 rows, 71 columns, 320 nonzeros
Variable types: 0 continuous, 71 integer (47 binary)

Root relaxation: objective 5.184000e+04, 34 iterations, 0.00 seconds (0.00 work units)

    Nodes    |    Current Node    |     Objective Bounds      |     Work
 Expl Unexpl |  Obj  Depth IntInf | Incumbent    BestBd   Gap | It/Node Time

     0     0 51840.0000    0   24          - 51840.0000      -     -    0s
H    0     0                    73752.000000 51840.0000  29.7%     -    0s
H    0     0                    73751.000000 51840.0000  29.7%     -    0s
     0     0 61930.0000    0   37 73751.0000 61930.0000  16.0%     -    0s
H    0     0                    73750.000000 61930.0000  16.0%     -    0s
     0     0 61987.8762    0   34 73750.0000 61987.8762  15.9%     -    0s
     0     0 61994.0835    0   36 73750.0000 61994.0835  15.9%     -    0s
     0     0 61994.0835    0   36 73750.0000 61994.0835  15.9%     -    0s
H    0     0                    72331.000000 61994.0835  14.3%     -    0s
     0     0 63412.2245    0   49 72331.0000 63412.2245  12.3%     -    0s
     0     0 63416.0083    0   46 72331.0000 63416.0083  12.3%     -    0s
     0     0 63416.0083    0   47 72331.0000 63416.0083  12.3%     -    0s
     0     0 63418.8380    0   46 72331.0000 63418.8380  12.3%     -    0s
     0     0 63421.2089    0   48 72331.0000 63421.2089  12.3%     -    0s
     0     0 63423.0000    0   47 72331.0000 63423.0000  12.3%     -    0s
     0     0 63433.0000    0   45 72331.0000 63433.0000  12.3%     -    0s
H    0     0                    70820.000000 63433.0000  10.4%     -    0s
     0     2 63433.8888    0   45 70820.0000 63433.8888  10.4%     -    0s

Cutting planes:
  Gomory: 2
  Implied bound: 8
  MIR: 4
  RLT: 2
  Relax-and-lift: 11

Explored 241 nodes (2249 simplex iterations) in 0.07 seconds (0.03 work units)
Thread count was 16 (of 16 available processors)

Solution count 5: 70820 72331 73750 ... 73752

Optimal solution found (tolerance 1.00e-04)
Best objective 7.082000000000e+04, best bound 7.082000000000e+04, gap 0.0000%
Warning: variable name "y[job:0, stage:0, machine:1]" has a space
Warning: constraint name "precedence between 1,0 to 0,0 if x_[j,l,h,z,i]=1" has a space
Warning: to let Gurobi read it back, use rlp format
Warning: variable name "y[job:0, stage:0, machine:1]" has a space
Warning: constraint name "precedence between 1,0 to 0,0 if x_[j,l,h,z,i]=1" has a space
Warning: default variable names used to write mps file
Warning: default constraint names used to write mps file
Warning: variable name "y[job:0, stage:0, machine:1]" has a space
Warning: default variable names used to write solution file
